1 - 0
2 - 0
3 - 0
4 - 0
5 - 0
6 - 0
7 - 0
8 - 0
9 - 0
10 - 0
11 - 0
12 - 0
13 - 0
14 - 0
15 - 0
16 - 0
17 - 0
18 - 0
19 - 0
20 - 0
21 - 0
22 - 0
23 - 0
24 - 0
25 - 0
26 - 0
27 - 786
28 - 12362
29 - 51613
30 - 27533
31 - 7835
32 - 23
33 - 0
34 - 0
35 - 0
36 - 0
37 - 0
38 - 0
39 - 0
40 - 0
41 - 0
42 - 0
43 - 0
44 - 0
45 - 0
46 - 0
47 - 0
48 - 0
49 - 0
50 - 0

0.1 - 7702
0.2 - 9535
0.3 - 9988
0.4 - 10192
0.5 - 10218
0.6 - 10171
0.7 - 10289
0.8 - 10610
0.9 - 10704
1 - 10743
